(set-logic ALL)
(declare-fun var0 () String)
(assert (str.in_re var0 (re.++ (re.union (re.union (str.to_re "00") (str.to_re "111")) (re.union (str.to_re "2") (str.to_re "333"))) (re.++ (re.union (re.+ (str.to_re "4")) (re.+ (str.to_re "555"))) (re.++ (re.* (re.union (str.to_re "6") (str.to_re "777"))) (re.++ (re.* (re.* (str.to_re "8"))) (re.++ (re.* (re.+ (str.to_re "99"))) (re.++ (re.union (re.* (str.to_re "aaa")) (re.* (str.to_re "b"))) (re.++ (re.union (re.+ (str.to_re "c")) (re.+ (str.to_re "dd"))) (re.++ (re.* (re.* (str.to_re "ee"))) (re.++ (re.union (re.* (str.to_re "f")) (re.* (str.to_re "ggg"))) (re.+ (re.+ (str.to_re "hhh"))))))))))))))
(assert (<= 251 (str.len var0)))
(check-sat)